NAME : si175.22175.tour
COMMENT : Cost = 7394_22175
COMMENT : Found by LKH [Keld Helsgaun] Thu Nov 16 14:49:33 2017
TYPE : TOUR
DIMENSION : 177
TOUR_SECTION
1
2
3
20
21
23
22
63
65
24
25
26
27
4
32
119
31
30
29
28
67
64
66
68
69
70
71
72
73
74
75
76
77
109
95
108
94
93
107
106
105
88
87
54
52
53
55
57
56
58
60
62
61
59
19
18
17
16
15
14
177
6
5
7
8
9
34
33
97
98
81
38
80
79
78
96
112
168
172
173
174
136
137
138
139
142
141
135
143
144
145
146
140
121
133
132
131
130
129
128
127
126
125
124
123
122
134
120
118
175
151
150
149
111
92
91
176
10
11
36
35
37
39
40
41
82
42
43
44
83
45
46
47
48
84
100
101
85
99
147
148
159
114
113
160
171
170
169
162
158
115
157
116
156
161
167
166
117
165
155
154
153
164
163
152
110
90
89
104
103
102
86
49
50
51
13
12
-1
EOF
